proyfinal/src/viki/013/andrea/andrea-localstore/experimentInOfficeAgust.take6/worker_10/83c88c97-fce4-422e-893a-c6f74f8e4d20.als.cnf.out
Reading from standard input... Use '--help' for help.
============================[ Problem Statistics ]=============================
|                                                                             |
|  Number of variables:         87638                                         |
|  Number of clauses:          161767                                         |
|  Parse time:                   0.03 s                                       |
|                                                                             |
============================[ Search Statistics ]==============================
| Conflicts |          ORIGINAL         |          LEARNT          | Progress |
|           |    Vars  Clauses Literals |    Limit  Clauses Lit/Cl |          |
===============================================================================
|       100 |   62014   103907   259567 |    38099      100     21 | 29.238 % |
|       250 |   62014   103907   259567 |    41909      250     35 | 29.239 % |
|       475 |   62014   103907   259567 |    46100      475     43 | 29.238 % |
|       812 |   62013   103863   259477 |    50710      811     52 | 29.240 % |
|      1318 |   62013   103863   259477 |    55781     1317     69 | 29.240 % |
|      2077 |   61997   103797   259324 |    61359     1811     81 | 29.258 % |
|      3216 |   61971   103654   259012 |    67495     2569     78 | 29.288 % |
|      4924 |   49484   103511   258700 |    74244     3794     80 | 43.536 % |
|      7486 |   49237    66748   168580 |    81669     5241     65 | 43.818 % |
|     11330 |   48971    65618   165881 |    89835     9053     57 | 44.121 % |
===============================================================================
restarts              : 53
conflicts             : 12137          (7667 /sec)
decisions             : 38325          (0.00 % random) (24211 /sec)
propagations          : 17883836       (11297747 /sec)
conflict literals     : 691325         (47.07 % deleted)
Memory used           : 30.14 MB
CPU time              : 1.58296 s

UNSATISFIABLE
